NAME :
TYPE : CCVRP
COMMENT :
DIMENSION : 400
CAPACITY : 1000
EDGE_WEIGHT_TYPE : EUC_2D_DBL
NODE_COORD_TYPE: TWOD_COORD
NODE_COORD_SECTION
1 0.0000 -19.0000
2 -1.0000 -18.0000
3 1.0000 -18.0000
4 -2.0000 -17.0000
5 0.0000 -17.0000
6 2.0000 -17.0000
7 -3.0000 -16.0000
8 -1.0000 -16.0000
9 1.0000 -16.0000
10 3.0000 -16.0000
11 -4.0000 -15.0000
12 -2.0000 -15.0000
13 0.0000 -15.0000
14 2.0000 -15.0000
15 4.0000 -15.0000
16 -5.0000 -14.0000
17 -3.0000 -14.0000
18 -1.0000 -14.0000
19 1.0000 -14.0000
20 3.0000 -14.0000
21 5.0000 -14.0000
22 -6.0000 -13.0000
23 -4.0000 -13.0000
24 -2.0000 -13.0000
25 0.0000 -13.0000
26 2.0000 -13.0000
27 4.0000 -13.0000
28 6.0000 -13.0000
29 -7.0000 -12.0000
30 -5.0000 -12.0000
31 -3.0000 -12.0000
32 -1.0000 -12.0000
33 1.0000 -12.0000
34 3.0000 -12.0000
35 5.0000 -12.0000
36 7.0000 -12.0000
37 -8.0000 -11.0000
38 -6.0000 -11.0000
39 -4.0000 -11.0000
40 -2.0000 -11.0000
41 0.0000 -11.0000
42 2.0000 -11.0000
43 4.0000 -11.0000
44 6.0000 -11.0000
45 8.0000 -11.0000
46 -9.0000 -10.0000
47 -7.0000 -10.0000
48 -5.0000 -10.0000
49 -3.0000 -10.0000
50 -1.0000 -10.0000
51 1.0000 -10.0000
52 3.0000 -10.0000
53 5.0000 -10.0000
54 7.0000 -10.0000
55 9.0000 -10.0000
56 -10.0000 -9.0000
57 -8.0000 -9.0000
58 -6.0000 -9.0000
59 -4.0000 -9.0000
60 -2.0000 -9.0000
61 0.0000 -9.0000
62 2.0000 -9.0000
63 4.0000 -9.0000
64 6.0000 -9.0000
65 8.0000 -9.0000
66 10.0000 -9.0000
67 -11.0000 -8.0000
68 -9.0000 -8.0000
69 -7.0000 -8.0000
70 -5.0000 -8.0000
71 -3.0000 -8.0000
72 -1.0000 -8.0000
73 1.0000 -8.0000
74 3.0000 -8.0000
75 5.0000 -8.0000
76 7.0000 -8.0000
77 9.0000 -8.0000
78 11.0000 -8.0000
79 -12.0000 -7.0000
80 -10.0000 -7.0000
81 -8.0000 -7.0000
82 -6.0000 -7.0000
83 -4.0000 -7.0000
84 -2.0000 -7.0000
85 0.0000 -7.0000
86 2.0000 -7.0000
87 4.0000 -7.0000
88 6.0000 -7.0000
89 8.0000 -7.0000
90 10.0000 -7.0000
91 12.0000 -7.0000
92 -13.0000 -6.0000
93 -11.0000 -6.0000
94 -9.0000 -6.0000
95 -7.0000 -6.0000
96 -5.0000 -6.0000
97 -3.0000 -6.0000
98 -1.0000 -6.0000
99 1.0000 -6.0000
100 3.0000 -6.0000
101 5.0000 -6.0000
102 7.0000 -6.0000
103 9.0000 -6.0000
104 11.0000 -6.0000
105 13.0000 -6.0000
106 -14.0000 -5.0000
107 -12.0000 -5.0000
108 -10.0000 -5.0000
109 -8.0000 -5.0000
110 -6.0000 -5.0000
111 -4.0000 -5.0000
112 -2.0000 -5.0000
113 0.0000 -5.0000
114 2.0000 -5.0000
115 4.0000 -5.0000
116 6.0000 -5.0000
117 8.0000 -5.0000
118 10.0000 -5.0000
119 12.0000 -5.0000
120 14.0000 -5.0000
121 -15.0000 -4.0000
122 -13.0000 -4.0000
123 -11.0000 -4.0000
124 -9.0000 -4.0000
125 -7.0000 -4.0000
126 -5.0000 -4.0000
127 -3.0000 -4.0000
128 -1.0000 -4.0000
129 1.0000 -4.0000
130 3.0000 -4.0000
131 5.0000 -4.0000
132 7.0000 -4.0000
133 9.0000 -4.0000
134 11.0000 -4.0000
135 13.0000 -4.0000
136 15.0000 -4.0000
137 -16.0000 -3.0000
138 -14.0000 -3.0000
139 -12.0000 -3.0000
140 -10.0000 -3.0000
141 -8.0000 -3.0000
142 -6.0000 -3.0000
143 -4.0000 -3.0000
144 -2.0000 -3.0000
145 0.0000 -3.0000
146 2.0000 -3.0000
147 4.0000 -3.0000
148 6.0000 -3.0000
149 8.0000 -3.0000
150 10.0000 -3.0000
151 12.0000 -3.0000
152 14.0000 -3.0000
153 16.0000 -3.0000
154 -17.0000 -2.0000
155 -15.0000 -2.0000
156 -13.0000 -2.0000
157 -11.0000 -2.0000
158 -9.0000 -2.0000
159 -7.0000 -2.0000
160 -5.0000 -2.0000
161 -3.0000 -2.0000
162 -1.0000 -2.0000
163 1.0000 -2.0000
164 3.0000 -2.0000
165 5.0000 -2.0000
166 7.0000 -2.0000
167 9.0000 -2.0000
168 11.0000 -2.0000
169 13.0000 -2.0000
170 15.0000 -2.0000
171 17.0000 -2.0000
172 -18.0000 -1.0000
173 -16.0000 -1.0000
174 -14.0000 -1.0000
175 -12.0000 -1.0000
176 -10.0000 -1.0000
177 -8.0000 -1.0000
178 -6.0000 -1.0000
179 -4.0000 -1.0000
180 -2.0000 -1.0000
181 0.0000 -1.0000
182 2.0000 -1.0000
183 4.0000 -1.0000
184 6.0000 -1.0000
185 8.0000 -1.0000
186 10.0000 -1.0000
187 12.0000 -1.0000
188 14.0000 -1.0000
189 16.0000 -1.0000
190 18.0000 -1.0000
191 -19.0000 0.0000
192 -17.0000 0.0000
193 -15.0000 0.0000
194 -13.0000 0.0000
195 -11.0000 0.0000
196 -9.0000 0.0000
197 -7.0000 0.0000
198 -5.0000 0.0000
199 -3.0000 0.0000
200 -1.0000 0.0000
201 1.0000 0.0000
202 3.0000 0.0000
203 5.0000 0.0000
204 7.0000 0.0000
205 9.0000 0.0000
206 11.0000 0.0000
207 13.0000 0.0000
208 15.0000 0.0000
209 17.0000 0.0000
210 19.0000 0.0000
211 -18.0000 1.0000
212 -16.0000 1.0000
213 -14.0000 1.0000
214 -12.0000 1.0000
215 -10.0000 1.0000
216 -8.0000 1.0000
217 -6.0000 1.0000
218 -4.0000 1.0000
219 -2.0000 1.0000
220 0.0000 1.0000
221 2.0000 1.0000
222 4.0000 1.0000
223 6.0000 1.0000
224 8.0000 1.0000
225 10.0000 1.0000
226 12.0000 1.0000
227 14.0000 1.0000
228 16.0000 1.0000
229 18.0000 1.0000
230 -17.0000 2.0000
231 -15.0000 2.0000
232 -13.0000 2.0000
233 -11.0000 2.0000
234 -9.0000 2.0000
235 -7.0000 2.0000
236 -5.0000 2.0000
237 -3.0000 2.0000
238 -1.0000 2.0000
239 1.0000 2.0000
240 3.0000 2.0000
241 5.0000 2.0000
242 7.0000 2.0000
243 9.0000 2.0000
244 11.0000 2.0000
245 13.0000 2.0000
246 15.0000 2.0000
247 17.0000 2.0000
248 -16.0000 3.0000
249 -14.0000 3.0000
250 -12.0000 3.0000
251 -10.0000 3.0000
252 -8.0000 3.0000
253 -6.0000 3.0000
254 -4.0000 3.0000
255 -2.0000 3.0000
256 0.0000 3.0000
257 2.0000 3.0000
258 4.0000 3.0000
259 6.0000 3.0000
260 8.0000 3.0000
261 10.0000 3.0000
262 12.0000 3.0000
263 14.0000 3.0000
264 16.0000 3.0000
265 -15.0000 4.0000
266 -13.0000 4.0000
267 -11.0000 4.0000
268 -9.0000 4.0000
269 -7.0000 4.0000
270 -5.0000 4.0000
271 -3.0000 4.0000
272 -1.0000 4.0000
273 1.0000 4.0000
274 3.0000 4.0000
275 5.0000 4.0000
276 7.0000 4.0000
277 9.0000 4.0000
278 11.0000 4.0000
279 13.0000 4.0000
280 15.0000 4.0000
281 -14.0000 5.0000
282 -12.0000 5.0000
283 -10.0000 5.0000
284 -8.0000 5.0000
285 -6.0000 5.0000
286 -4.0000 5.0000
287 -2.0000 5.0000
288 0.0000 5.0000
289 2.0000 5.0000
290 4.0000 5.0000
291 6.0000 5.0000
292 8.0000 5.0000
293 10.0000 5.0000
294 12.0000 5.0000
295 14.0000 5.0000
296 -13.0000 6.0000
297 -11.0000 6.0000
298 -9.0000 6.0000
299 -7.0000 6.0000
300 -5.0000 6.0000
301 -3.0000 6.0000
302 -1.0000 6.0000
303 1.0000 6.0000
304 3.0000 6.0000
305 5.0000 6.0000
306 7.0000 6.0000
307 9.0000 6.0000
308 11.0000 6.0000
309 13.0000 6.0000
310 -12.0000 7.0000
311 -10.0000 7.0000
312 -8.0000 7.0000
313 -6.0000 7.0000
314 -4.0000 7.0000
315 -2.0000 7.0000
316 0.0000 7.0000
317 2.0000 7.0000
318 4.0000 7.0000
319 6.0000 7.0000
320 8.0000 7.0000
321 10.0000 7.0000
322 12.0000 7.0000
323 -11.0000 8.0000
324 -9.0000 8.0000
325 -7.0000 8.0000
326 -5.0000 8.0000
327 -3.0000 8.0000
328 -1.0000 8.0000
329 1.0000 8.0000
330 3.0000 8.0000
331 5.0000 8.0000
332 7.0000 8.0000
333 9.0000 8.0000
334 11.0000 8.0000
335 -10.0000 9.0000
336 -8.0000 9.0000
337 -6.0000 9.0000
338 -4.0000 9.0000
339 -2.0000 9.0000
340 0.0000 9.0000
341 2.0000 9.0000
342 4.0000 9.0000
343 6.0000 9.0000
344 8.0000 9.0000
345 10.0000 9.0000
346 -9.0000 10.0000
347 -7.0000 10.0000
348 -5.0000 10.0000
349 -3.0000 10.0000
350 -1.0000 10.0000
351 1.0000 10.0000
352 3.0000 10.0000
353 5.0000 10.0000
354 7.0000 10.0000
355 9.0000 10.0000
356 -8.0000 11.0000
357 -6.0000 11.0000
358 -4.0000 11.0000
359 -2.0000 11.0000
360 0.0000 11.0000
361 2.0000 11.0000
362 4.0000 11.0000
363 6.0000 11.0000
364 8.0000 11.0000
365 -7.0000 12.0000
366 -5.0000 12.0000
367 -3.0000 12.0000
368 -1.0000 12.0000
369 1.0000 12.0000
370 3.0000 12.0000
371 5.0000 12.0000
372 7.0000 12.0000
373 -6.0000 13.0000
374 -4.0000 13.0000
375 -2.0000 13.0000
376 0.0000 13.0000
377 2.0000 13.0000
378 4.0000 13.0000
379 6.0000 13.0000
380 -5.0000 14.0000
381 -3.0000 14.0000
382 -1.0000 14.0000
383 1.0000 14.0000
384 3.0000 14.0000
385 5.0000 14.0000
386 -4.0000 15.0000
387 -2.0000 15.0000
388 0.0000 15.0000
389 2.0000 15.0000
390 4.0000 15.0000
391 -3.0000 16.0000
392 -1.0000 16.0000
393 1.0000 16.0000
394 3.0000 16.0000
395 -2.0000 17.0000
396 0.0000 17.0000
397 2.0000 17.0000
398 -1.0000 18.0000
399 1.0000 18.0000
400 0.0000 19.0000
DEMAND_SECTION
1 0
2 300
3 300
4 180
5 300
6 180
7 128
8 180
9 180
10 128
11 100
12 128
13 180
14 128
15 100
16 81
17 100
18 128
19 128
20 100
21 81
22 69
23 81
24 100
25 128
26 100
27 81
28 69
29 60
30 69
31 81
32 100
33 100
34 81
35 69
36 60
37 52
38 60
39 69
40 81
41 100
42 81
43 69
44 60
45 52
46 47
47 52
48 60
49 69
50 81
51 81
52 69
53 60
54 52
55 47
56 42
57 47
58 52
59 60
60 69
61 81
62 69
63 60
64 52
65 47
66 42
67 39
68 42
69 47
70 52
71 60
72 69
73 69
74 60
75 52
76 47
77 42
78 39
79 36
80 39
81 42
82 47
83 52
84 60
85 69
86 60
87 52
88 47
89 42
90 39
91 36
92 33
93 36
94 39
95 42
96 47
97 52
98 60
99 60
100 52
101 47
102 42
103 39
104 36
105 33
106 31
107 33
108 36
109 39
110 42
111 47
112 52
113 60
114 52
115 47
116 42
117 39
118 36
119 33
120 31
121 29
122 31
123 33
124 36
125 39
126 42
127 47
128 52
129 52
130 47
131 42
132 39
133 36
134 33
135 31
136 29
137 27
138 29
139 31
140 33
141 36
142 39
143 42
144 47
145 52
146 47
147 42
148 39
149 36
150 33
151 31
152 29
153 27
154 25
155 27
156 29
157 31
158 33
159 36
160 39
161 42
162 47
163 47
164 42
165 39
166 36
167 33
168 31
169 29
170 27
171 25
172 24
173 25
174 27
175 29
176 31
177 33
178 36
179 39
180 42
181 47
182 42
183 39
184 36
185 33
186 31
187 29
188 27
189 25
190 24
191 23
192 24
193 25
194 27
195 29
196 31
197 33
198 36
199 39
200 42
201 42
202 39
203 36
204 33
205 31
206 29
207 27
208 25
209 24
210 23
211 23
212 24
213 25
214 27
215 29
216 31
217 33
218 36
219 39
220 42
221 39
222 36
223 33
224 31
225 29
226 27
227 25
228 24
229 23
230 23
231 24
232 25
233 27
234 29
235 31
236 33
237 36
238 39
239 39
240 36
241 33
242 31
243 29
244 27
245 25
246 24
247 23
248 23
249 24
250 25
251 27
252 29
253 31
254 33
255 36
256 39
257 36
258 33
259 31
260 29
261 27
262 25
263 24
264 23
265 23
266 24
267 25
268 27
269 29
270 31
271 33
272 36
273 36
274 33
275 31
276 29
277 27
278 25
279 24
280 23
281 23
282 24
283 25
284 27
285 29
286 31
287 33
288 36
289 33
290 31
291 29
292 27
293 25
294 24
295 23
296 23
297 24
298 25
299 27
300 29
301 31
302 33
303 33
304 31
305 29
306 27
307 25
308 24
309 23
310 23
311 24
312 25
313 27
314 29
315 31
316 33
317 31
318 29
319 27
320 25
321 24
322 23
323 23
324 24
325 25
326 27
327 29
328 31
329 31
330 29
331 27
332 25
333 24
334 23
335 23
336 24
337 25
338 27
339 29
340 31
341 29
342 27
343 25
344 24
345 23
346 23
347 24
348 25
349 27
350 29
351 29
352 27
353 25
354 24
355 23
356 23
357 24
358 25
359 27
360 29
361 27
362 25
363 24
364 23
365 23
366 24
367 25
368 27
369 27
370 25
371 24
372 23
373 23
374 24
375 25
376 27
377 25
378 24
379 23
380 23
381 24
382 25
383 25
384 24
385 23
386 23
387 24
388 25
389 24
390 23
391 23
392 24
393 24
394 23
395 23
396 24
397 23
398 23
399 23
400 23
CLUSTER_SECTION
1 64
2 2
3 3
4 4
5 5
6 6
7 7
8 8
9 9
10 10
11 7
12 11
13 12
14 10
15 13
16 14
17 11
18 15
19 16
20 13
21 13
22 14
23 14
24 15
25 16
26 17
27 18
28 18
29 14
30 19
31 19
32 20
33 17
34 17
35 18
36 21
37 22
38 19
39 19
40 20
41 20
42 18
43 23
44 21
45 21
46 22
47 22
48 24
49 24
50 25
51 26
52 23
53 21
54 21
55 27
56 22
57 22
58 22
59 24
60 25
61 25
62 23
63 23
64 28
65 27
66 27
67 29
68 29
69 24
70 24
71 30
72 26
73 26
74 26
75 28
76 27
77 27
78 27
79 29
80 29
81 31
82 31
83 30
84 30
85 32
86 32
87 28
88 28
89 28
90 33
91 33
92 29
93 29
94 29
95 31
96 30
97 30
98 32
99 32
100 34
101 28
102 33
103 33
104 33
105 35
106 36
107 36
108 31
109 31
110 31
111 37
112 37
113 38
114 34
115 34
116 39
117 33
118 33
119 33
120 35
121 36
122 36
123 36
124 31
125 40
126 37
127 37
128 38
129 34
130 34
131 34
132 39
133 35
134 35
135 35
136 35
137 36
138 36
139 36
140 40
141 40
142 37
143 37
144 38
145 38
146 38
147 39
148 39
149 39
150 35
151 35
152 35
153 41
154 42
155 36
156 36
157 43
158 40
159 40
160 40
161 44
162 44
163 45
164 45
165 39
166 39
167 46
168 46
169 41
170 41
171 41
172 42
173 42
174 42
175 43
176 43
177 40
178 40
179 44
180 44
181 45
182 45
183 45
184 46
185 46
186 46
187 41
188 41
189 41
190 41
191 42
192 42
193 42
194 42
195 43
196 43
197 43
198 44
199 44
200 44
201 45
202 45
203 47
204 46
205 46
206 46
207 41
208 41
209 41
210 48
211 42
212 42
213 42
214 43
215 43
216 43
217 49
218 49
219 50
220 50
221 47
222 47
223 47
224 46
225 48
226 1
227 1
228 1
229 48
230 42
231 51
232 43
233 51
234 49
235 49
236 49
237 49
238 50
239 50
240 47
241 47
242 47
243 48
244 48
245 1
246 1
247 48
248 51
249 51
250 51
251 51
252 49
253 49
254 49
255 50
256 50
257 52
258 47
259 53
260 53
261 48
262 1
263 1
264 1
265 51
266 51
267 51
268 54
269 54
270 54
271 50
272 52
273 52
274 52
275 52
276 53
277 48
278 48
279 1
280 1
281 51
282 51
283 54
284 54
285 54
286 55
287 55
288 52
289 52
290 52
291 53
292 53
293 53
294 1
295 1
296 51
297 54
298 54
299 54
300 55
301 55
302 55
303 56
304 53
305 53
306 53
307 53
308 57
309 48
310 58
311 54
312 54
313 55
314 55
315 55
316 56
317 56
318 56
319 57
320 57
321 57
322 48
323 58
324 58
325 58
326 55
327 55
328 56
329 56
330 56
331 59
332 57
333 57
334 57
335 58
336 58
337 58
338 60
339 60
340 56
341 56
342 59
343 57
344 57
345 57
346 58
347 58
348 58
349 60
350 60
351 59
352 59
353 59
354 57
355 57
356 58
357 58
358 60
359 60
360 60
361 59
362 59
363 59
364 59
365 60
366 60
367 60
368 60
369 61
370 59
371 59
372 62
373 63
374 63
375 61
376 61
377 61
378 61
379 62
380 63
381 61
382 61
383 61
384 61
385 61
386 63
387 62
388 61
389 61
390 62
391 62
392 62
393 62
394 62
395 63
396 62
397 62
398 63
399 62
400 62
DEPOT_SECTION
1
-1
EOF
